WARNING: for repeatability, setting FPU to use double precision
============================[ Problem Statistics ]=============================
|                                                                             |
|  Number of variables:          6228                                         |
|  Number of clauses:          482594                                         |
|  Parse time:                   0.16 s                                       |
|                                                                             |
============================[ Search Statistics ]==============================
| Conflicts |          ORIGINAL         |          LEARNT          | Progress |
|           |    Vars  Clauses Literals |    Limit  Clauses Lit/Cl |          |
===============================================================================
|       100 |    6212   482558  3828013 |   176937      100     18 |  0.257 % |
|       250 |    6212   482558  3828013 |   194631      250     15 |  0.257 % |
|       475 |    6212   482558  3828013 |   214094      475     15 |  0.257 % |
|       812 |    6212   482558  3828013 |   235504      812     14 |  0.257 % |
|      1318 |    6212   482558  3828013 |   259054     1318     13 |  0.257 % |
|      2077 |    6212   482558  3828013 |   284960     2077     13 |  0.257 % |
|      3216 |    6212   482558  3828013 |   313456     3216     13 |  0.257 % |
|      4924 |    6212   482558  3828013 |   344801     4924     13 |  0.257 % |
|      7486 |    6212   482558  3828013 |   379282     7486     13 |  0.257 % |
|     11330 |    6212   482558  3828013 |   417210    11330     13 |  0.257 % |
|     17096 |    6212   482558  3828013 |   458931    17096     13 |  0.257 % |
|     25745 |    6212   482558  3828013 |   504824    25745     13 |  0.257 % |
|     38719 |    6212   482558  3828013 |   555307    38719     13 |  0.257 % |
|     58180 |    6212   482558  3828013 |   610837    58180     14 |  0.257 % |
|     87372 |    6212   482558  3828013 |   671921    87372     14 |  0.257 % |
|    131161 |    6212   482558  3828013 |   739113   131161     15 |  0.257 % |
|    196845 |    6212   482558  3828013 |   813025   196845     15 |  0.257 % |
|    295371 |    6212   482558  3828013 |   894327   295371     16 |  0.257 % |
|    443160 |    6211   482370  3826905 |   983760   443159     17 |  0.273 % |
|    664843 |    6186   477017  3787238 |  1082136   589227     16 |  0.674 % |
|    997368 |    6184   477017  3787238 |  1190349   921751     16 |  0.706 % |
|   1496156 |    6184   476011  3779232 |  1309384   254591     16 |  0.706 % |
|   2244338 |    6181   475066  3771706 |  1440323  1002764     19 |  0.755 % |
|   3366612 |    6179   474388  3766302 |  1584355   713825     21 |  0.787 % |
===============================================================================
restarts              : 8191
conflicts             : 5037736        (16866 /sec)
decisions             : 41319120       (0.00 % random) (138334 /sec)
propagations          : 168100531      (562793 /sec)
conflict literals     : 110820905      (14.09 % deleted)
Memory used           : 405.00 MB
CPU time              : 298.69 s

INDETERMINATE
